proyfinal/src/viki/013/experimentInOfficeAgust.take6.output/21781d98-2f02-405d-9e4c-01d5dd3d78c6.als.dat
{'cnf.clauses': '118081',
 'cnf.totvars': '69608',
 'conflict literals': '92',
 'conflicts': '28',
 'decisions': '4703',
 'memused.mb': '16.54',
 'outcome': 'UNSAT',
 'propagations': '25696',
 'restarts': '1',
 'solver.msecs': 30,
 'task.msecs': 77}
