proyfinal/src/viki/013/experimentInOfficeAgust.take6.output/21781d98-2f02-405d-9e4c-01d5dd3d78c6.als.out
Reading from standard input... Use '--help' for help.
============================[ Problem Statistics ]=============================
|                                                                             |
|  Number of variables:         69608                                         |
|  Number of clauses:          118081                                         |
|  Parse time:                   0.02 s                                       |
|                                                                             |
============================[ Search Statistics ]==============================
| Conflicts |          ORIGINAL         |          LEARNT          | Progress |
|           |    Vars  Clauses Literals |    Limit  Clauses Lit/Cl |          |
===============================================================================
===============================================================================
restarts              : 1
conflicts             : 28             (933 /sec)
decisions             : 4703           (0.00 % random) (156662 /sec)
propagations          : 25696          (855963 /sec)
conflict literals     : 92             (0.00 % deleted)
Memory used           : 16.54 MB
CPU time              : 0.03002 s

UNSATISFIABLE
